NAME : OMNETRUN
COMMENT : 524.61
TYPE : CVRP
DIMENSION : 21
EDGE_WEIGHT_TYPE : EUC_2D
CAPACITY : 21
NODE_COORD_SECTION
1 0.107093 -0.77924
2 125.048 -852.152
3 191.023 -2849.07
4 63.1516 -3558.91
5 4.32227 -4139.93
6 13.3416 -4640.57
7 191.847 -5073.68
8 40.4201 -5888.91
9 420.74 -164.441
10 376.33 -1587.55
11 419.89 -2079.65
12 283.401 -3250.28
13 312.428 -4351.35
14 487.438 -5866.51
15 709.208 -712.857
16 562.823 -1065.73
17 660.759 -2488.42
18 624.955 -2857.93
19 621.464 -3357.82
20 520.306 -3849.07
21 709.446 -5023
DEMAND_SECTION
1 0
2 1
3 1
4 1
5 1
6 1
7 1
8 1
9 1
10 1
11 1
12 1
13 1
14 1
15 1
16 1
17 1
18 1
19 1
20 1
21 1
DEPOT_SECTION
1
-1
EOF
